benchmarks_CP/INST_64x64/40/inst64x64_40_37.dzn
S=8;
start=[|
-1,	10,	-1,	-1,	41,	25,	13,	57,	4,	-1,	-1,	15,	60,	-1,	39,	-1,	55,	31,	30,	48,	52,	-1,	-1,	-1,	-1,	24,	-1,	35,	-1,	-1,	-1,	-1,	-1,	-1,	-1,	53,	-1,	-1,	-1,	5,	-1,	-1,	-1,	50,	-1,	-1,	-1,	-1,	-1,	-1,	-1,	11,	38,	-1,	-1,	-1,	23,	42,	-1,	8,	-1,	-1,	-1,	-1|
-1,	44,	-1,	-1,	62,	24,	9,	61,	-1,	48,	-1,	20,	-1,	-1,	43,	36,	19,	-1,	-1,	-1,	11,	-1,	8,	-1,	56,	-1,	-1,	31,	-1,	-1,	-1,	-1,	-1,	63,	34,	-1,	14,	7,	57,	-1,	21,	37,	-1,	-1,	-1,	-1,	32,	-1,	35,	-1,	-1,	-1,	-1,	2,	15,	22,	38,	-1,	-1,	4,	55,	28,	-1,	5|
-1,	-1,	-1,	-1,	33,	-1,	53,	20,	-1,	1,	-1,	-1,	-1,	51,	-1,	-1,	-1,	-1,	-1,	17,	-1,	-1,	15,	-1,	14,	-1,	44,	-1,	50,	-1,	36,	-1,	3,	-1,	-1,	-1,	22,	35,	-1,	-1,	13,	-1,	-1,	-1,	62,	10,	-1,	60,	-1,	-1,	-1,	-1,	19,	45,	-1,	26,	24,	48,	16,	46,	-1,	-1,	-1,	-1|
-1,	-1,	-1,	49,	-1,	-1,	-1,	-1,	3,	-1,	18,	-1,	-1,	8,	-1,	-1,	-1,	-1,	-1,	-1,	54,	-1,	-1,	-1,	-1,	-1,	-1,	4,	25,	-1,	12,	-1,	-1,	42,	-1,	-1,	21,	-1,	20,	-1,	-1,	-1,	-1,	-1,	-1,	-1,	-1,	35,	-1,	-1,	-1,	-1,	-1,	60,	31,	-1,	-1,	-1,	-1,	-1,	44,	58,	13,	15|
8,	-1,	-1,	-1,	36,	-1,	15,	-1,	-1,	-1,	-1,	-1,	-1,	35,	-1,	-1,	-1,	-1,	5,	13,	10,	-1,	3,	-1,	29,	-1,	-1,	-1,	57,	60,	-1,	54,	-1,	61,	52,	-1,	55,	-1,	-1,	-1,	2,	18,	41,	-1,	53,	58,	44,	34,	4,	6,	-1,	-1,	-1,	-1,	-1,	-1,	12,	-1,	-1,	-1,	-1,	50,	56,	-1|
16,	-1,	-1,	1,	-1,	-1,	-1,	-1,	-1,	-1,	-1,	46,	-1,	22,	-1,	13,	-1,	-1,	57,	9,	-1,	34,	-1,	-1,	-1,	-1,	-1,	-1,	-1,	-1,	-1,	33,	50,	17,	58,	36,	12,	-1,	-1,	-1,	29,	-1,	-1,	23,	59,	3,	-1,	4,	63,	18,	25,	-1,	-1,	44,	51,	-1,	-1,	40,	32,	-1,	-1,	-1,	-1,	10|
-1,	59,	19,	63,	-1,	17,	-1,	-1,	54,	-1,	-1,	31,	42,	34,	50,	45,	24,	21,	-1,	-1,	-1,	-1,	44,	-1,	39,	-1,	-1,	-1,	-1,	-1,	-1,	58,	16,	4,	-1,	-1,	-1,	-1,	-1,	46,	7,	-1,	-1,	22,	-1,	61,	-1,	-1,	8,	-1,	-1,	-1,	40,	-1,	-1,	62,	-1,	-1,	-1,	-1,	-1,	-1,	-1,	3|
-1,	43,	7,	23,	18,	-1,	-1,	11,	-1,	-1,	-1,	-1,	-1,	-1,	-1,	-1,	-1,	-1,	22,	16,	42,	4,	2,	-1,	-1,	63,	-1,	-1,	-1,	45,	10,	62,	1,	24,	-1,	-1,	-1,	-1,	-1,	13,	19,	15,	54,	8,	46,	-1,	52,	-1,	-1,	-1,	56,	-1,	-1,	9,	-1,	47,	-1,	-1,	-1,	17,	51,	-1,	34,	-1|
64,	33,	-1,	-1,	-1,	30,	-1,	-1,	58,	12,	39,	7,	-1,	18,	-1,	44,	21,	15,	-1,	-1,	-1,	19,	-1,	35,	40,	-1,	-1,	52,	31,	11,	-1,	-1,	-1,	3,	59,	-1,	-1,	41,	23,	17,	-1,	2,	27,	42,	-1,	-1,	-1,	50,	-1,	14,	20,	-1,	-1,	-1,	47,	-1,	-1,	-1,	37,	-1,	26,	16,	32,	6|
32,	-1,	-1,	-1,	-1,	-1,	-1,	46,	-1,	23,	-1,	-1,	50,	28,	-1,	24,	-1,	-1,	-1,	-1,	40,	-1,	-1,	-1,	-1,	-1,	-1,	3,	-1,	-1,	-1,	-1,	13,	-1,	2,	-1,	-1,	-1,	-1,	20,	64,	-1,	60,	-1,	55,	-1,	-1,	-1,	-1,	58,	18,	25,	-1,	33,	-1,	-1,	39,	30,	-1,	-1,	-1,	59,	8,	14|
-1,	-1,	-1,	-1,	-1,	-1,	14,	45,	22,	-1,	-1,	-1,	-1,	10,	-1,	15,	-1,	-1,	-1,	-1,	-1,	-1,	54,	-1,	-1,	-1,	2,	-1,	-1,	18,	-1,	-1,	-1,	-1,	-1,	51,	-1,	-1,	4,	64,	-1,	23,	-1,	-1,	-1,	-1,	62,	-1,	-1,	-1,	40,	-1,	-1,	-1,	-1,	-1,	-1,	31,	-1,	-1,	29,	-1,	-1,	-1|
-1,	62,	-1,	36,	-1,	-1,	4,	43,	-1,	-1,	-1,	-1,	-1,	-1,	29,	-1,	-1,	52,	-1,	3,	59,	-1,	38,	45,	27,	23,	-1,	39,	-1,	41,	19,	-1,	6,	-1,	-1,	-1,	-1,	49,	-1,	33,	-1,	20,	-1,	-1,	-1,	-1,	15,	-1,	55,	-1,	2,	-1,	-1,	-1,	-1,	-1,	-1,	-1,	-1,	-1,	46,	48,	-1,	57|
-1,	-1,	-1,	-1,	8,	38,	-1,	-1,	61,	-1,	-1,	4,	-1,	36,	9,	1,	-1,	14,	13,	-1,	-1,	-1,	-1,	-1,	30,	26,	-1,	-1,	12,	51,	48,	-1,	-1,	-1,	45,	-1,	63,	-1,	-1,	29,	46,	-1,	59,	-1,	-1,	-1,	-1,	-1,	-1,	-1,	-1,	-1,	22,	-1,	49,	-1,	19,	-1,	40,	25,	3,	-1,	-1,	-1|
18,	2,	-1,	39,	-1,	-1,	-1,	-1,	8,	-1,	-1,	-1,	-1,	-1,	-1,	-1,	-1,	-1,	-1,	60,	33,	-1,	17,	-1,	62,	-1,	-1,	-1,	-1,	-1,	-1,	-1,	-1,	-1,	30,	-1,	-1,	-1,	7,	52,	-1,	-1,	35,	-1,	36,	-1,	-1,	-1,	-1,	-1,	6,	-1,	-1,	1,	-1,	-1,	50,	-1,	13,	-1,	-1,	-1,	27,	-1|
-1,	-1,	-1,	-1,	-1,	22,	-1,	59,	-1,	3,	41,	-1,	64,	63,	-1,	14,	31,	-1,	32,	-1,	-1,	-1,	-1,	1,	-1,	16,	-1,	-1,	61,	-1,	5,	-1,	55,	19,	57,	-1,	-1,	21,	-1,	26,	28,	-1,	6,	-1,	-1,	-1,	-1,	-1,	-1,	-1,	-1,	-1,	-1,	46,	50,	-1,	54,	-1,	-1,	2,	20,	-1,	-1,	-1|
-1,	-1,	34,	-1,	-1,	-1,	21,	-1,	59,	2,	19,	27,	49,	-1,	45,	25,	-1,	-1,	16,	24,	46,	47,	6,	63,	20,	-1,	42,	33,	-1,	56,	-1,	-1,	-1,	-1,	50,	12,	40,	-1,	14,	-1,	-1,	-1,	-1,	-1,	-1,	54,	37,	58,	-1,	29,	-1,	60,	11,	-1,	62,	13,	17,	-1,	-1,	-1,	10,	-1,	-1,	-1|
-1,	46,	-1,	-1,	-1,	-1,	-1,	16,	-1,	-1,	54,	-1,	23,	3,	-1,	-1,	-1,	-1,	42,	-1,	56,	29,	-1,	-1,	-1,	-1,	14,	25,	-1,	-1,	41,	-1,	-1,	12,	-1,	-1,	-1,	40,	-1,	44,	49,	58,	-1,	-1,	45,	-1,	-1,	11,	2,	-1,	60,	-1,	-1,	-1,	-1,	-1,	-1,	17,	-1,	-1,	5,	-1,	43,	-1|
-1,	-1,	-1,	-1,	44,	60,	-1,	9,	-1,	62,	29,	-1,	-1,	-1,	-1,	34,	32,	11,	63,	-1,	-1,	54,	50,	-1,	57,	22,	-1,	13,	-1,	-1,	-1,	-1,	-1,	10,	-1,	61,	56,	-1,	-1,	-1,	-1,	-1,	20,	19,	18,	46,	1,	-1,	7,	27,	23,	-1,	-1,	12,	3,	42,	-1,	-1,	-1,	30,	-1,	53,	-1,	-1|
20,	-1,	59,	-1,	-1,	57,	-1,	14,	-1,	-1,	-1,	53,	25,	-1,	-1,	-1,	-1,	-1,	-1,	45,	-1,	33,	19,	-1,	50,	-1,	26,	-1,	-1,	-1,	-1,	-1,	21,	-1,	55,	-1,	-1,	-1,	-1,	-1,	-1,	-1,	15,	34,	-1,	-1,	3,	23,	-1,	-1,	43,	-1,	-1,	-1,	8,	17,	-1,	-1,	-1,	51,	-1,	2,	6,	39|
-1,	-1,	-1,	-1,	-1,	34,	-1,	-1,	-1,	45,	51,	-1,	56,	-1,	-1,	-1,	-1,	-1,	14,	-1,	4,	5,	64,	-1,	55,	-1,	-1,	-1,	-1,	6,	-1,	-1,	-1,	28,	7,	-1,	23,	-1,	49,	-1,	-1,	-1,	52,	-1,	12,	57,	-1,	-1,	-1,	-1,	29,	26,	-1,	11,	24,	-1,	15,	-1,	-1,	-1,	18,	27,	50,	38|
11,	51,	-1,	26,	-1,	62,	-1,	35,	-1,	-1,	-1,	-1,	-1,	-1,	42,	58,	-1,	-1,	34,	-1,	3,	30,	22,	-1,	33,	-1,	27,	-1,	-1,	-1,	32,	-1,	24,	-1,	25,	47,	-1,	-1,	18,	37,	-1,	-1,	-1,	54,	4,	39,	53,	-1,	-1,	-1,	-1,	-1,	10,	-1,	-1,	-1,	-1,	-1,	-1,	-1,	56,	41,	-1,	-1|
-1,	-1,	2,	-1,	-1,	-1,	-1,	-1,	27,	64,	-1,	36,	-1,	24,	17,	-1,	-1,	12,	-1,	49,	-1,	-1,	39,	41,	1,	43,	61,	37,	-1,	53,	-1,	-1,	-1,	-1,	4,	11,	-1,	15,	-1,	34,	-1,	-1,	5,	-1,	-1,	-1,	-1,	-1,	-1,	-1,	22,	-1,	45,	-1,	35,	-1,	7,	-1,	-1,	-1,	-1,	-1,	-1,	-1|
-1,	-1,	15,	-1,	-1,	-1,	49,	-1,	-1,	-1,	31,	9,	-1,	1,	-1,	-1,	-1,	-1,	-1,	-1,	36,	-1,	-1,	-1,	-1,	-1,	-1,	11,	-1,	54,	-1,	-1,	39,	-1,	-1,	-1,	-1,	-1,	58,	3,	-1,	-1,	13,	-1,	-1,	-1,	-1,	-1,	62,	-1,	-1,	-1,	-1,	-1,	38,	-1,	14,	16,	46,	-1,	40,	-1,	-1,	22|
-1,	23,	-1,	-1,	-1,	-1,	64,	50,	14,	57,	-1,	-1,	30,	15,	26,	-1,	-1,	-1,	-1,	-1,	-1,	55,	-1,	-1,	34,	46,	-1,	-1,	-1,	-1,	-1,	-1,	20,	38,	-1,	-1,	-1,	16,	2,	-1,	44,	-1,	-1,	10,	33,	-1,	59,	41,	-1,	-1,	63,	-1,	-1,	-1,	18,	54,	3,	-1,	21,	36,	31,	-1,	-1,	-1|
-1,	-1,	-1,	35,	47,	53,	32,	-1,	-1,	21,	33,	50,	-1,	-1,	-1,	-1,	22,	60,	-1,	-1,	58,	9,	-1,	6,	-1,	61,	62,	-1,	-1,	36,	-1,	49,	-1,	30,	-1,	-1,	-1,	45,	15,	-1,	18,	44,	-1,	-1,	-1,	34,	-1,	-1,	10,	-1,	46,	-1,	13,	-1,	-1,	-1,	-1,	26,	-1,	-1,	59,	-1,	39,	-1|
-1,	9,	45,	40,	-1,	-1,	7,	-1,	-1,	-1,	22,	-1,	-1,	-1,	-1,	-1,	-1,	-1,	36,	-1,	-1,	-1,	-1,	-1,	-1,	-1,	31,	-1,	29,	-1,	26,	-1,	42,	-1,	-1,	-1,	54,	52,	-1,	-1,	-1,	64,	16,	-1,	-1,	-1,	49,	3,	57,	-1,	-1,	-1,	-1,	-1,	-1,	-1,	-1,	53,	62,	-1,	-1,	-1,	60,	47|
-1,	42,	-1,	56,	43,	8,	26,	-1,	-1,	-1,	-1,	-1,	37,	-1,	15,	-1,	-1,	44,	-1,	-1,	-1,	12,	-1,	33,	52,	-1,	-1,	-1,	-1,	30,	-1,	10,	-1,	46,	11,	7,	-1,	57,	-1,	58,	-1,	-1,	55,	20,	-1,	41,	47,	-1,	-1,	-1,	4,	-1,	-1,	-1,	22,	38,	-1,	14,	31,	40,	-1,	-1,	-1,	1|
-1,	58,	-1,	41,	-1,	-1,	-1,	3,	-1,	40,	-1,	48,	63,	-1,	4,	-1,	-1,	19,	-1,	55,	-1,	21,	-1,	-1,	16,	38,	57,	-1,	-1,	-1,	-1,	-1,	-1,	-1,	-1,	-1,	-1,	-1,	-1,	31,	39,	-1,	8,	27,	-1,	12,	-1,	-1,	43,	-1,	15,	-1,	36,	50,	-1,	33,	18,	37,	-1,	20,	42,	-1,	-1,	-1|
-1,	5,	-1,	-1,	15,	-1,	44,	-1,	-1,	-1,	28,	-1,	24,	26,	-1,	43,	37,	-1,	-1,	-1,	31,	42,	7,	-1,	46,	-1,	-1,	-1,	19,	1,	-1,	-1,	56,	16,	-1,	49,	38,	14,	8,	36,	-1,	21,	-1,	-1,	-1,	60,	-1,	45,	-1,	-1,	62,	-1,	-1,	47,	-1,	-1,	25,	-1,	-1,	-1,	-1,	-1,	-1,	-1|
-1,	-1,	-1,	-1,	19,	-1,	59,	-1,	-1,	-1,	-1,	30,	-1,	-1,	-1,	-1,	-1,	-1,	54,	-1,	1,	16,	-1,	-1,	-1,	56,	-1,	-1,	27,	-1,	33,	-1,	-1,	62,	23,	25,	-1,	-1,	53,	60,	-1,	-1,	-1,	-1,	-1,	35,	-1,	-1,	-1,	-1,	-1,	-1,	-1,	-1,	-1,	61,	46,	22,	45,	-1,	-1,	-1,	2,	36|
28,	-1,	-1,	31,	-1,	20,	-1,	36,	-1,	-1,	-1,	-1,	27,	-1,	-1,	-1,	34,	-1,	-1,	-1,	43,	-1,	-1,	8,	-1,	-1,	-1,	-1,	39,	14,	-1,	-1,	-1,	-1,	10,	5,	-1,	-1,	-1,	48,	-1,	19,	-1,	-1,	-1,	-1,	6,	-1,	21,	45,	3,	-1,	-1,	30,	60,	25,	-1,	63,	49,	-1,	-1,	33,	16,	-1|
-1,	-1,	24,	-1,	-1,	-1,	-1,	33,	-1,	-1,	14,	11,	-1,	-1,	-1,	-1,	-1,	-1,	49,	-1,	45,	-1,	-1,	52,	41,	-1,	-1,	42,	-1,	-1,	-1,	15,	4,	13,	29,	-1,	47,	28,	-1,	-1,	-1,	57,	-1,	-1,	22,	37,	-1,	-1,	-1,	-1,	53,	-1,	-1,	6,	-1,	-1,	-1,	-1,	-1,	-1,	-1,	-1,	38,	-1|
59,	-1,	64,	-1,	-1,	37,	-1,	-1,	40,	44,	-1,	42,	3,	-1,	-1,	-1,	-1,	-1,	-1,	-1,	-1,	-1,	18,	-1,	28,	-1,	1,	-1,	24,	61,	-1,	23,	41,	-1,	49,	21,	-1,	30,	60,	53,	-1,	-1,	-1,	2,	10,	-1,	-1,	-1,	58,	-1,	39,	62,	14,	-1,	-1,	15,	57,	-1,	-1,	-1,	-1,	-1,	-1,	19|
55,	7,	-1,	12,	-1,	46,	-1,	24,	60,	-1,	-1,	64,	-1,	61,	-1,	-1,	4,	-1,	43,	-1,	-1,	-1,	49,	17,	51,	54,	-1,	-1,	-1,	13,	45,	-1,	11,	-1,	-1,	-1,	-1,	-1,	33,	62,	8,	-1,	19,	-1,	-1,	-1,	-1,	42,	-1,	25,	-1,	-1,	35,	-1,	-1,	29,	-1,	34,	56,	14,	27,	-1,	23,	-1|
-1,	-1,	-1,	61,	-1,	-1,	58,	48,	-1,	7,	-1,	-1,	-1,	13,	-1,	-1,	50,	-1,	20,	42,	-1,	52,	-1,	-1,	64,	35,	-1,	49,	30,	-1,	-1,	-1,	8,	55,	-1,	-1,	-1,	-1,	37,	-1,	40,	-1,	53,	-1,	-1,	-1,	14,	-1,	-1,	-1,	44,	-1,	-1,	3,	41,	18,	-1,	2,	33,	-1,	-1,	51,	25,	46|
-1,	-1,	-1,	-1,	-1,	-1,	-1,	-1,	-1,	33,	-1,	21,	-1,	-1,	14,	-1,	48,	51,	10,	-1,	-1,	22,	37,	-1,	-1,	-1,	-1,	-1,	-1,	-1,	-1,	41,	-1,	-1,	31,	-1,	46,	-1,	34,	-1,	-1,	-1,	-1,	4,	-1,	62,	-1,	-1,	6,	42,	-1,	50,	-1,	64,	54,	49,	5,	-1,	-1,	-1,	24,	-1,	1,	-1|
-1,	-1,	-1,	-1,	30,	-1,	-1,	-1,	-1,	-1,	12,	58,	-1,	-1,	-1,	-1,	-1,	54,	-1,	-1,	-1,	15,	55,	-1,	-1,	9,	40,	5,	-1,	-1,	-1,	-1,	64,	29,	-1,	-1,	-1,	20,	1,	-1,	43,	35,	51,	16,	-1,	25,	7,	-1,	-1,	34,	-1,	22,	-1,	8,	53,	-1,	36,	10,	50,	-1,	60,	49,	-1,	13|
-1,	29,	-1,	-1,	4,	-1,	-1,	-1,	-1,	-1,	59,	-1,	-1,	-1,	22,	28,	35,	1,	24,	-1,	-1,	-1,	-1,	14,	-1,	55,	-1,	-1,	-1,	-1,	-1,	53,	-1,	7,	56,	57,	-1,	-1,	-1,	-1,	-1,	45,	-1,	-1,	-1,	18,	30,	37,	-1,	11,	-1,	-1,	-1,	-1,	-1,	-1,	40,	-1,	41,	-1,	32,	-1,	-1,	-1|
40,	-1,	22,	-1,	-1,	-1,	-1,	-1,	-1,	-1,	1,	-1,	38,	-1,	49,	-1,	-1,	16,	25,	12,	-1,	-1,	-1,	-1,	-1,	60,	-1,	-1,	-1,	50,	18,	11,	-1,	-1,	-1,	19,	36,	-1,	-1,	-1,	-1,	46,	29,	17,	-1,	52,	-1,	-1,	5,	43,	24,	-1,	61,	-1,	13,	-1,	55,	-1,	-1,	9,	-1,	-1,	63,	30|
-1,	34,	-1,	-1,	52,	49,	-1,	19,	-1,	-1,	32,	-1,	-1,	-1,	-1,	-1,	-1,	41,	-1,	30,	39,	11,	-1,	-1,	-1,	-1,	-1,	46,	17,	22,	15,	14,	-1,	-1,	13,	-1,	3,	-1,	28,	-1,	-1,	56,	-1,	-1,	-1,	6,	5,	-1,	-1,	-1,	1,	-1,	23,	10,	-1,	-1,	53,	-1,	61,	-1,	-1,	42,	-1,	-1|
-1,	53,	-1,	3,	2,	-1,	-1,	60,	20,	-1,	15,	-1,	-1,	-1,	-1,	-1,	-1,	-1,	51,	-1,	34,	62,	-1,	-1,	-1,	-1,	49,	16,	-1,	-1,	-1,	27,	-1,	-1,	-1,	14,	-1,	39,	-1,	35,	-1,	-1,	-1,	-1,	-1,	50,	54,	-1,	-1,	22,	37,	-1,	-1,	-1,	61,	23,	56,	8,	-1,	-1,	1,	40,	-1,	21|
-1,	20,	36,	-1,	-1,	-1,	-1,	-1,	46,	14,	-1,	40,	8,	55,	-1,	4,	42,	-1,	-1,	56,	-1,	35,	28,	-1,	43,	37,	5,	-1,	-1,	26,	-1,	34,	33,	27,	12,	-1,	-1,	23,	-1,	-1,	32,	1,	61,	-1,	-1,	-1,	-1,	22,	-1,	-1,	-1,	53,	54,	-1,	-1,	39,	-1,	-1,	-1,	-1,	63,	18,	-1,	2|
-1,	-1,	52,	-1,	-1,	-1,	-1,	-1,	-1,	-1,	64,	-1,	41,	-1,	58,	-1,	39,	-1,	61,	-1,	5,	-1,	9,	49,	-1,	62,	-1,	-1,	-1,	12,	-1,	-1,	40,	-1,	-1,	-1,	-1,	11,	-1,	10,	-1,	-1,	-1,	-1,	60,	-1,	-1,	-1,	-1,	-1,	13,	15,	48,	42,	-1,	7,	27,	-1,	-1,	57,	6,	-1,	-1,	-1|
-1,	-1,	-1,	-1,	-1,	-1,	-1,	64,	1,	-1,	-1,	-1,	10,	-1,	-1,	37,	23,	59,	-1,	-1,	22,	-1,	53,	-1,	-1,	25,	46,	47,	40,	-1,	-1,	-1,	-1,	-1,	62,	-1,	-1,	36,	55,	42,	-1,	11,	-1,	-1,	-1,	-1,	-1,	20,	18,	-1,	34,	45,	27,	51,	63,	41,	-1,	3,	-1,	-1,	52,	-1,	44,	-1|
39,	-1,	43,	-1,	-1,	33,	11,	7,	-1,	27,	-1,	62,	12,	19,	-1,	-1,	44,	25,	40,	-1,	-1,	-1,	-1,	-1,	-1,	-1,	-1,	53,	-1,	23,	29,	-1,	51,	-1,	-1,	-1,	24,	26,	-1,	6,	-1,	16,	-1,	-1,	-1,	63,	-1,	5,	-1,	47,	-1,	36,	-1,	-1,	-1,	10,	45,	32,	28,	-1,	-1,	-1,	-1,	-1|
22,	-1,	-1,	57,	-1,	16,	63,	-1,	11,	-1,	-1,	24,	34,	29,	-1,	-1,	3,	-1,	-1,	-1,	48,	-1,	-1,	-1,	44,	-1,	50,	51,	-1,	-1,	42,	-1,	-1,	52,	47,	60,	-1,	56,	45,	-1,	-1,	14,	-1,	40,	-1,	-1,	-1,	36,	-1,	-1,	9,	33,	6,	-1,	-1,	35,	4,	-1,	39,	-1,	-1,	-1,	-1,	-1|
-1,	-1,	37,	4,	-1,	-1,	-1,	32,	39,	-1,	21,	-1,	43,	-1,	-1,	-1,	-1,	30,	-1,	54,	-1,	-1,	63,	-1,	9,	-1,	18,	-1,	-1,	55,	7,	-1,	2,	20,	28,	34,	8,	-1,	25,	-1,	-1,	33,	-1,	-1,	-1,	-1,	10,	6,	-1,	-1,	5,	3,	-1,	-1,	-1,	-1,	11,	-1,	-1,	61,	-1,	-1,	15,	-1|
47,	1,	-1,	-1,	24,	50,	-1,	42,	-1,	59,	-1,	18,	-1,	-1,	-1,	5,	-1,	33,	-1,	-1,	-1,	2,	-1,	-1,	10,	39,	-1,	-1,	48,	31,	-1,	-1,	-1,	-1,	-1,	-1,	-1,	19,	-1,	-1,	-1,	-1,	-1,	-1,	-1,	38,	-1,	27,	32,	-1,	49,	43,	-1,	14,	-1,	8,	30,	-1,	-1,	-1,	-1,	34,	22,	35|
19,	60,	-1,	-1,	61,	-1,	31,	-1,	6,	22,	63,	-1,	-1,	14,	5,	-1,	-1,	-1,	3,	-1,	-1,	-1,	-1,	-1,	24,	11,	-1,	-1,	42,	16,	-1,	29,	-1,	-1,	-1,	37,	35,	-1,	-1,	2,	-1,	8,	-1,	-1,	-1,	-1,	33,	49,	-1,	-1,	-1,	-1,	50,	18,	-1,	45,	-1,	-1,	15,	-1,	-1,	55,	-1,	17|
-1,	-1,	-1,	-1,	-1,	-1,	16,	-1,	15,	17,	-1,	-1,	20,	-1,	-1,	8,	-1,	-1,	-1,	58,	-1,	26,	-1,	-1,	3,	19,	-1,	-1,	-1,	37,	52,	-1,	28,	39,	-1,	-1,	-1,	46,	-1,	-1,	5,	41,	21,	-1,	-1,	-1,	31,	-1,	13,	60,	-1,	44,	-1,	-1,	-1,	-1,	35,	-1,	53,	6,	-1,	-1,	49,	32|
23,	-1,	-1,	-1,	-1,	55,	3,	-1,	-1,	-1,	38,	-1,	-1,	-1,	24,	19,	-1,	-1,	-1,	-1,	20,	-1,	-1,	-1,	17,	18,	6,	-1,	-1,	10,	-1,	-1,	14,	8,	-1,	-1,	-1,	-1,	-1,	7,	-1,	4,	22,	-1,	-1,	1,	-1,	-1,	-1,	-1,	-1,	63,	9,	-1,	-1,	-1,	-1,	58,	2,	21,	48,	47,	11,	25|
-1,	-1,	-1,	50,	-1,	-1,	-1,	10,	-1,	54,	55,	-1,	31,	4,	46,	16,	-1,	-1,	53,	1,	-1,	-1,	-1,	-1,	-1,	48,	22,	-1,	-1,	62,	-1,	-1,	-1,	11,	-1,	-1,	-1,	-1,	40,	-1,	20,	39,	-1,	-1,	-1,	2,	36,	-1,	-1,	-1,	61,	-1,	-1,	-1,	-1,	5,	-1,	-1,	-1,	-1,	-1,	-1,	-1,	-1|
-1,	11,	-1,	-1,	7,	-1,	57,	-1,	30,	36,	37,	-1,	26,	2,	-1,	-1,	54,	17,	19,	41,	-1,	60,	-1,	18,	-1,	-1,	35,	-1,	-1,	34,	-1,	-1,	-1,	-1,	9,	-1,	-1,	-1,	-1,	56,	-1,	62,	-1,	-1,	-1,	-1,	-1,	-1,	51,	-1,	-1,	59,	53,	-1,	-1,	-1,	-1,	43,	-1,	-1,	-1,	4,	52,	45|
-1,	4,	-1,	32,	-1,	-1,	28,	-1,	23,	-1,	-1,	35,	-1,	-1,	-1,	-1,	47,	-1,	31,	52,	-1,	-1,	-1,	-1,	-1,	-1,	-1,	27,	5,	59,	-1,	-1,	18,	-1,	-1,	13,	-1,	22,	-1,	-1,	53,	-1,	26,	64,	50,	-1,	-1,	-1,	-1,	8,	54,	-1,	3,	49,	-1,	46,	29,	56,	-1,	-1,	38,	44,	20,	40|
-1,	38,	-1,	17,	20,	6,	-1,	41,	-1,	9,	53,	-1,	-1,	-1,	-1,	-1,	36,	-1,	11,	23,	-1,	-1,	-1,	-1,	-1,	-1,	-1,	58,	-1,	-1,	-1,	-1,	-1,	-1,	1,	-1,	-1,	50,	-1,	-1,	42,	48,	-1,	52,	43,	-1,	-1,	18,	-1,	-1,	-1,	-1,	-1,	-1,	-1,	-1,	34,	-1,	-1,	5,	-1,	-1,	-1,	62|
-1,	-1,	-1,	-1,	59,	-1,	37,	2,	28,	58,	-1,	-1,	48,	-1,	-1,	18,	49,	-1,	-1,	-1,	-1,	45,	-1,	15,	-1,	-1,	25,	-1,	-1,	-1,	-1,	-1,	10,	32,	63,	-1,	-1,	-1,	-1,	-1,	-1,	29,	-1,	3,	56,	24,	60,	13,	20,	-1,	17,	-1,	-1,	35,	23,	4,	-1,	-1,	-1,	-1,	-1,	7,	-1,	12|
26,	-1,	-1,	-1,	35,	-1,	-1,	-1,	42,	-1,	-1,	-1,	-1,	64,	-1,	-1,	11,	-1,	41,	-1,	-1,	44,	-1,	5,	-1,	28,	-1,	-1,	-1,	-1,	-1,	-1,	-1,	49,	-1,	-1,	-1,	-1,	24,	47,	-1,	-1,	63,	-1,	-1,	14,	27,	32,	-1,	37,	-1,	6,	-1,	-1,	-1,	-1,	22,	-1,	52,	53,	16,	15,	-1,	29|
44,	-1,	-1,	-1,	-1,	43,	22,	-1,	57,	38,	-1,	55,	-1,	62,	-1,	59,	29,	-1,	52,	-1,	49,	-1,	-1,	54,	-1,	-1,	-1,	-1,	51,	-1,	-1,	5,	12,	56,	-1,	4,	-1,	27,	19,	39,	11,	13,	31,	-1,	-1,	-1,	-1,	-1,	23,	-1,	-1,	-1,	-1,	-1,	-1,	40,	-1,	35,	-1,	-1,	-1,	-1,	-1,	-1|
-1,	14,	-1,	59,	-1,	-1,	-1,	5,	26,	43,	-1,	-1,	-1,	-1,	-1,	-1,	25,	-1,	-1,	19,	-1,	36,	-1,	12,	7,	-1,	-1,	24,	-1,	20,	31,	-1,	-1,	40,	-1,	-1,	-1,	3,	-1,	-1,	-1,	-1,	-1,	-1,	64,	-1,	-1,	-1,	-1,	-1,	58,	-1,	15,	-1,	-1,	-1,	-1,	-1,	-1,	48,	-1,	-1,	-1,	-1|
-1,	24,	-1,	48,	57,	15,	-1,	4,	18,	28,	40,	-1,	17,	-1,	-1,	-1,	16,	-1,	-1,	22,	-1,	-1,	-1,	-1,	-1,	-1,	-1,	45,	37,	46,	-1,	44,	54,	-1,	-1,	-1,	62,	-1,	-1,	-1,	-1,	-1,	-1,	-1,	-1,	-1,	-1,	-1,	-1,	36,	-1,	64,	29,	13,	-1,	-1,	10,	-1,	-1,	33,	-1,	61,	7,	-1|
13,	17,	-1,	19,	23,	-1,	25,	38,	-1,	-1,	-1,	-1,	14,	48,	16,	63,	-1,	53,	-1,	21,	30,	-1,	60,	24,	61,	-1,	-1,	59,	-1,	58,	49,	52,	-1,	45,	-1,	-1,	26,	6,	-1,	-1,	-1,	40,	7,	-1,	-1,	-1,	-1,	56,	1,	-1,	-1,	-1,	-1,	-1,	27,	51,	20,	-1,	3,	50,	-1,	-1,	-1,	-1|
27,	-1,	41,	-1,	-1,	-1,	-1,	-1,	-1,	29,	3,	54,	-1,	-1,	-1,	33,	8,	-1,	-1,	46,	-1,	-1,	-1,	-1,	26,	-1,	60,	-1,	-1,	-1,	-1,	6,	37,	51,	-1,	-1,	-1,	-1,	-1,	-1,	52,	10,	-1,	-1,	-1,	-1,	38,	-1,	50,	-1,	-1,	24,	-1,	-1,	-1,	-1,	2,	59,	1,	-1,	19,	-1,	-1,	56|
54,	-1,	-1,	-1,	49,	10,	-1,	-1,	37,	-1,	-1,	19,	-1,	-1,	34,	6,	-1,	-1,	48,	-1,	63,	-1,	51,	-1,	38,	-1,	-1,	29,	55,	-1,	-1,	56,	7,	1,	-1,	50,	-1,	31,	-1,	16,	-1,	-1,	12,	-1,	61,	-1,	20,	53,	3,	-1,	-1,	-1,	-1,	52,	39,	-1,	44,	-1,	23,	-1,	28,	43,	40,	-1|
-1,	-1,	29,	51,	-1,	-1,	-1,	40,	-1,	49,	24,	-1,	35,	-1,	-1,	-1,	-1,	-1,	39,	-1,	-1,	-1,	47,	3,	-1,	-1,	11,	-1,	-1,	-1,	43,	-1,	59,	-1,	-1,	-1,	25,	-1,	10,	-1,	-1,	42,	-1,	-1,	37,	-1,	2,	-1,	-1,	7,	-1,	-1,	-1,	-1,	-1,	-1,	-1,	55,	-1,	-1,	14,	46,	31,	-1|];
