sudoku-ls/benchmarks_LEQ/INST_64x64/40/inst64x64_40_37.txt
8
1
3	-1	-1	-1	41	-1	-1	57	4	-1	-1	-1	-1	-1	39	62	55	-1	30	-1	52	-1	-1	32	2	-1	-1	35	16	47	28	-1	27	54	-1	-1	59	18	29	-1	-1	6	-1	50	-1	20	-1	-1	-1	-1	-1	-1	38	-1	-1	58	-1	-1	-1	8	-1	21	45	-1
-1	44	50	-1	-1	24	-1	-1	-1	48	58	20	53	-1	43	-1	-1	-1	-1	-1	-1	40	8	-1	-1	49	13	-1	-1	-1	-1	42	60	-1	-1	-1	-1	-1	57	-1	-1	37	-1	33	-1	-1	-1	17	-1	10	-1	-1	-1	2	-1	-1	38	-1	-1	-1	-1	-1	-1	-1
4	-1	-1	-1	-1	-1	53	-1	-1	-1	25	-1	-1	51	27	-1	-1	49	7	-1	-1	-1	-1	23	14	-1	44	-1	50	52	36	9	-1	47	-1	-1	-1	-1	31	-1	-1	63	56	5	-1	10	-1	60	-1	21	-1	54	-1	-1	-1	-1	-1	-1	16	-1	-1	-1	-1	-1
51	-1	-1	49	39	45	-1	-1	-1	-1	-1	-1	9	-1	33	-1	59	-1	-1	28	54	43	-1	-1	22	-1	-1	-1	-1	32	-1	-1	30	42	48	-1	21	37	20	-1	1	-1	38	-1	40	-1	57	-1	41	-1	-1	-1	-1	-1	-1	53	6	-1	14	-1	-1	-1	13	-1
8	-1	28	-1	36	32	15	-1	16	19	26	14	21	35	-1	11	-1	-1	-1	-1	-1	-1	-1	-1	-1	51	-1	40	-1	-1	-1	-1	-1	61	-1	45	-1	33	-1	9	-1	-1	-1	-1	53	-1	44	-1	-1	-1	42	48	-1	-1	-1	24	12	-1	25	-1	-1	-1	56	-1
-1	-1	-1	-1	-1	31	-1	-1	-1	-1	49	46	28	22	52	-1	45	-1	-1	-1	-1	-1	20	-1	5	-1	-1	-1	-1	-1	8	-1	-1	-1	58	36	12	62	-1	-1	-1	27	-1	-1	59	-1	39	-1	-1	-1	-1	14	-1	44	-1	-1	-1	-1	32	54	-1	60	53	-1
56	-1	19	-1	14	-1	60	-1	54	37	-1	31	42	34	50	-1	24	-1	6	-1	-1	-1	-1	36	-1	-1	-1	18	20	-1	-1	-1	-1	4	-1	-1	-1	-1	-1	-1	7	55	-1	22	48	61	11	47	8	-1	-1	-1	-1	43	-1	62	9	-1	-1	-1	-1	52	-1	-1
38	43	-1	-1	-1	35	27	-1	-1	-1	5	-1	-1	-1	-1	32	-1	58	22	16	-1	4	2	50	-1	-1	48	64	-1	45	-1	-1	-1	24	-1	-1	-1	25	-1	-1	-1	15	54	8	-1	-1	52	14	12	-1	56	-1	55	-1	-1	-1	-1	-1	-1	-1	51	-1	-1	31
64	-1	49	-1	29	30	55	-1	-1	-1	-1	-1	-1	-1	53	-1	-1	-1	-1	-1	62	-1	-1	35	40	-1	-1	52	-1	-1	46	1	25	3	59	-1	-1	-1	23	-1	-1	2	27	-1	-1	13	48	-1	61	-1	20	-1	-1	38	-1	-1	-1	5	-1	-1	26	-1	-1	-1
-1	41	6	47	-1	-1	61	46	52	-1	43	17	-1	-1	-1	-1	51	48	12	-1	-1	49	-1	-1	4	10	-1	-1	54	-1	37	57	13	-1	2	38	1	42	44	20	-1	-1	-1	-1	-1	9	-1	19	-1	58	18	-1	5	-1	-1	27	-1	30	36	-1	-1	59	-1	14
-1	50	3	58	-1	-1	-1	-1	-1	-1	6	26	46	-1	-1	15	-1	20	-1	8	-1	37	54	39	-1	-1	2	7	-1	18	17	60	5	-1	-1	51	-1	-1	-1	64	-1	-1	44	-1	38	-1	-1	-1	56	-1	40	-1	-1	-1	19	-1	49	-1	-1	-1	-1	1	33	-1
-1	62	-1	36	-1	26	-1	43	-1	11	35	32	-1	40	29	-1	18	-1	44	3	-1	-1	38	45	-1	-1	-1	39	-1	41	-1	-1	-1	31	37	-1	-1	-1	54	-1	-1	-1	14	25	1	-1	15	8	55	-1	-1	-1	-1	-1	-1	30	-1	-1	-1	-1	46	-1	24	-1
15	-1	10	-1	8	38	-1	37	-1	-1	-1	4	16	-1	9	-1	-1	-1	-1	-1	-1	28	41	-1	30	26	-1	-1	12	51	48	32	-1	-1	-1	39	-1	53	27	29	-1	34	59	-1	17	33	-1	-1	31	-1	-1	-1	22	23	-1	-1	19	44	-1	25	3	62	35	52
-1	2	-1	-1	-1	-1	24	53	8	51	-1	-1	-1	56	38	31	-1	64	-1	-1	-1	61	17	42	62	14	29	-1	-1	-1	-1	-1	-1	34	30	-1	-1	-1	-1	52	-1	43	35	-1	36	-1	-1	-1	-1	-1	-1	4	-1	-1	-1	3	-1	-1	-1	-1	-1	-1	27	-1
25	40	-1	-1	17	-1	-1	-1	-1	3	41	34	-1	-1	37	-1	-1	36	-1	-1	53	-1	27	-1	-1	-1	47	38	-1	-1	-1	43	-1	-1	57	62	-1	-1	-1	-1	28	52	6	-1	39	30	-1	-1	45	-1	-1	-1	-1	46	-1	-1	54	4	-1	-1	-1	-1	-1	-1
-1	-1	-1	-1	48	1	-1	-1	59	2	19	27	-1	-1	-1	-1	26	-1	16	24	46	-1	-1	63	-1	-1	42	-1	8	-1	9	-1	-1	-1	-1	-1	-1	-1	-1	-1	-1	5	-1	51	-1	-1	-1	-1	-1	29	35	60	-1	-1	62	-1	17	18	38	41	10	-1	55	53
63	46	-1	-1	-1	-1	-1	-1	47	-1	-1	28	23	3	-1	-1	-1	37	-1	35	56	-1	-1	-1	-1	20	-1	25	-1	-1	41	48	32	12	36	-1	-1	-1	30	44	-1	-1	-1	-1	45	27	-1	11	-1	-1	60	-1	-1	15	-1	-1	62	-1	-1	-1	5	-1	43	-1
-1	-1	-1	-1	44	-1	47	-1	-1	-1	29	49	-1	-1	55	-1	-1	11	63	-1	-1	-1	-1	28	57	22	-1	13	-1	38	24	-1	31	10	-1	-1	56	-1	17	-1	-1	-1	-1	19	-1	46	1	-1	7	27	23	-1	-1	12	-1	-1	52	-1	48	-1	45	-1	-1	33
-1	54	59	24	-1	-1	18	14	-1	61	44	-1	-1	37	-1	12	-1	10	-1	45	16	33	-1	-1	50	-1	-1	-1	-1	-1	40	-1	-1	-1	-1	-1	-1	29	46	-1	-1	-1	-1	34	31	7	3	-1	-1	13	43	-1	-1	-1	-1	-1	42	60	35	51	-1	-1	-1	-1
-1	-1	-1	-1	-1	-1	-1	31	48	-1	-1	13	-1	-1	40	39	-1	-1	14	61	-1	5	64	-1	55	-1	21	60	-1	6	16	2	62	28	-1	-1	-1	54	49	63	-1	-1	-1	-1	-1	-1	35	-1	-1	-1	-1	26	58	-1	24	-1	-1	9	10	-1	-1	27	-1	38
-1	-1	55	26	-1	-1	40	35	-1	-1	2	38	-1	-1	42	-1	13	46	34	15	-1	30	-1	-1	33	-1	-1	-1	23	-1	32	7	-1	6	-1	47	-1	9	18	-1	-1	-1	-1	54	4	39	53	-1	52	64	-1	61	10	-1	-1	-1	-1	-1	-1	29	-1	-1	-1	-1
30	-1	2	25	-1	-1	10	-1	-1	-1	-1	-1	33	-1	17	-1	40	12	-1	49	60	38	39	-1	1	-1	-1	-1	59	53	47	31	52	57	-1	-1	-1	-1	-1	-1	62	-1	-1	-1	-1	-1	-1	9	14	56	22	-1	45	-1	35	-1	-1	-1	-1	-1	-1	-1	54	-1
-1	28	15	-1	-1	-1	-1	-1	32	-1	-1	-1	-1	-1	-1	21	52	-1	-1	-1	36	57	-1	53	-1	-1	10	-1	44	-1	51	-1	-1	-1	-1	-1	-1	-1	58	3	-1	-1	13	48	-1	56	-1	-1	62	-1	33	-1	-1	-1	-1	-1	-1	16	-1	59	40	-1	47	22
-1	23	-1	-1	-1	13	-1	50	-1	-1	-1	-1	-1	-1	-1	-1	17	-1	-1	-1	6	-1	-1	-1	-1	46	28	-1	62	-1	58	35	-1	-1	51	-1	-1	16	2	-1	-1	-1	40	10	-1	29	59	41	-1	39	-1	-1	25	-1	-1	-1	3	12	-1	36	-1	-1	37	-1
48	-1	-1	35	-1	-1	32	25	-1	-1	-1	50	-1	12	54	57	-1	60	-1	-1	-1	9	-1	-1	11	-1	-1	-1	-1	36	-1	49	-1	-1	3	-1	-1	45	-1	-1	-1	44	-1	-1	-1	-1	-1	-1	-1	-1	46	-1	13	63	14	-1	-1	26	-1	-1	-1	17	-1	28
37	9	-1	40	-1	-1	7	-1	25	32	22	-1	61	6	19	-1	-1	50	-1	-1	-1	-1	-1	-1	-1	-1	31	-1	-1	-1	26	-1	42	33	27	-1	-1	-1	35	18	30	-1	16	-1	5	-1	-1	-1	-1	-1	-1	-1	-1	-1	34	1	21	-1	62	11	12	-1	-1	-1
-1	-1	-1	-1	-1	-1	26	49	64	-1	-1	45	37	-1	15	2	61	-1	35	-1	28	12	-1	-1	-1	-1	24	17	6	-1	3	10	34	-1	-1	7	19	-1	21	-1	48	-1	55	20	-1	41	47	-1	54	-1	-1	-1	-1	27	22	-1	32	-1	31	40	-1	5	29	-1
10	-1	23	-1	-1	-1	-1	-1	-1	-1	-1	-1	-1	-1	-1	47	53	-1	-1	55	14	-1	11	64	16	38	57	-1	-1	-1	22	-1	-1	59	-1	-1	6	51	-1	31	-1	7	8	-1	-1	-1	-1	46	-1	44	-1	-1	36	50	52	33	-1	-1	-1	20	-1	-1	-1	-1
52	5	-1	-1	-1	-1	-1	-1	-1	-1	28	41	-1	-1	3	-1	37	-1	17	-1	31	-1	-1	30	-1	-1	12	54	-1	1	35	-1	-1	16	-1	-1	-1	-1	-1	-1	-1	21	-1	-1	63	-1	-1	-1	29	-1	62	-1	-1	-1	11	9	25	-1	-1	23	-1	-1	-1	-1
14	64	57	11	-1	4	-1	-1	-1	-1	42	-1	44	5	-1	-1	-1	-1	-1	-1	1	16	26	-1	-1	-1	-1	21	27	-1	-1	37	-1	-1	-1	25	-1	-1	-1	-1	51	-1	-1	-1	-1	-1	-1	-1	-1	17	-1	49	-1	40	-1	-1	-1	-1	45	52	-1	-1	-1	-1
28	-1	61	-1	38	-1	54	-1	-1	52	-1	-1	-1	58	35	-1	-1	-1	59	-1	43	46	-1	8	18	40	-1	-1	-1	14	-1	-1	17	-1	-1	5	-1	-1	-1	-1	-1	-1	-1	-1	11	-1	6	-1	-1	45	-1	23	42	30	-1	-1	51	63	-1	15	41	33	-1	-1
-1	30	-1	-1	63	21	-1	33	-1	-1	-1	-1	-1	46	59	20	2	-1	-1	51	45	-1	-1	-1	41	8	-1	-1	9	-1	-1	-1	-1	13	29	55	-1	-1	-1	-1	10	57	-1	32	-1	-1	-1	-1	-1	-1	53	-1	26	-1	-1	56	-1	54	-1	19	7	-1	38	44
-1	-1	-1	16	-1	37	-1	-1	-1	44	-1	-1	3	-1	-1	-1	-1	-1	-1	-1	38	56	-1	31	-1	47	-1	-1	24	-1	34	23	-1	22	49	21	17	-1	60	-1	27	-1	36	-1	-1	32	13	63	-1	-1	39	-1	-1	-1	-1	-1	-1	-1	-1	45	11	29	-1	19
-1	-1	-1	12	-1	46	-1	-1	-1	6	52	-1	15	61	30	-1	-1	3	-1	-1	32	53	-1	-1	-1	54	-1	36	63	-1	-1	21	-1	5	-1	10	9	-1	-1	62	-1	47	-1	39	-1	-1	-1	-1	-1	-1	57	-1	-1	37	-1	-1	-1	34	-1	14	27	22	-1	-1
-1	15	-1	-1	-1	5	-1	48	-1	-1	-1	-1	-1	13	63	-1	50	-1	20	42	-1	52	-1	29	-1	-1	-1	-1	-1	57	-1	-1	-1	-1	-1	-1	-1	-1	37	-1	40	-1	-1	26	-1	22	-1	1	17	-1	44	-1	60	-1	-1	18	47	-1	-1	28	-1	-1	-1	46
-1	-1	32	45	53	-1	-1	-1	36	-1	-1	-1	-1	-1	-1	-1	-1	-1	10	-1	13	-1	-1	-1	8	-1	-1	-1	-1	-1	59	-1	-1	43	-1	23	46	63	-1	12	58	-1	-1	-1	-1	62	61	55	6	-1	19	50	30	-1	54	-1	-1	-1	-1	-1	-1	-1	-1	-1
-1	63	-1	27	-1	-1	56	23	62	26	-1	58	57	-1	41	-1	46	54	-1	-1	47	15	55	61	-1	9	-1	-1	-1	33	6	19	64	-1	-1	48	-1	-1	-1	-1	43	35	51	16	44	-1	-1	-1	-1	34	-1	22	31	8	-1	-1	36	10	-1	18	60	-1	3	-1
-1	29	9	60	-1	-1	-1	13	-1	16	-1	23	-1	31	-1	-1	35	1	-1	-1	64	63	-1	-1	-1	55	-1	-1	58	-1	27	-1	-1	7	56	-1	-1	44	50	-1	54	-1	-1	15	34	18	-1	-1	-1	-1	51	46	-1	48	-1	-1	40	-1	-1	-1	-1	-1	-1	-1
-1	6	-1	-1	26	-1	-1	8	-1	-1	-1	37	-1	-1	-1	10	57	-1	-1	-1	23	-1	59	-1	-1	60	-1	-1	-1	50	18	-1	-1	14	-1	-1	36	47	-1	-1	33	-1	29	17	-1	-1	-1	-1	-1	-1	-1	-1	-1	7	-1	-1	55	-1	4	-1	-1	31	63	30
-1	-1	-1	20	-1	49	-1	-1	-1	-1	32	29	-1	-1	51	-1	33	-1	-1	-1	39	11	-1	-1	12	-1	-1	-1	-1	22	15	-1	-1	-1	-1	18	3	4	28	25	-1	-1	-1	60	-1	-1	5	-1	-1	-1	1	-1	-1	-1	-1	-1	-1	-1	-1	44	-1	-1	-1	54
-1	53	-1	-1	-1	9	-1	60	20	-1	15	63	-1	-1	36	-1	10	-1	-1	4	34	-1	-1	47	6	-1	-1	-1	-1	28	-1	-1	-1	-1	18	14	-1	-1	-1	-1	-1	30	-1	-1	-1	50	-1	-1	-1	22	37	-1	59	-1	-1	23	56	-1	-1	24	-1	-1	-1	21
-1	20	-1	-1	-1	59	-1	15	46	14	-1	40	-1	-1	6	4	-1	13	58	-1	17	-1	28	16	-1	-1	-1	-1	-1	26	-1	-1	-1	-1	-1	-1	57	-1	3	30	-1	-1	-1	-1	7	-1	-1	22	-1	-1	52	-1	54	25	-1	39	-1	62	-1	-1	-1	-1	41	-1
46	-1	-1	38	-1	-1	-1	-1	-1	35	-1	-1	-1	-1	-1	51	39	-1	-1	36	-1	-1	-1	49	-1	62	-1	-1	-1	12	56	24	-1	37	22	-1	-1	-1	-1	-1	34	-1	47	-1	-1	-1	-1	-1	28	-1	-1	-1	-1	42	-1	-1	-1	-1	-1	57	6	-1	-1	-1
-1	8	-1	-1	-1	54	-1	-1	-1	-1	-1	-1	-1	-1	-1	37	23	-1	-1	-1	-1	-1	-1	-1	-1	25	-1	-1	-1	35	-1	-1	48	50	62	43	-1	36	-1	42	-1	-1	39	28	2	-1	24	20	-1	-1	-1	-1	-1	51	63	41	-1	3	-1	58	-1	-1	44	-1
39	61	-1	-1	-1	-1	-1	-1	49	-1	48	62	12	-1	-1	-1	44	25	-1	-1	-1	-1	-1	20	-1	-1	-1	53	41	23	29	-1	-1	-1	15	-1	-1	26	64	6	56	-1	42	35	-1	-1	8	5	60	-1	30	36	-1	55	2	10	45	-1	-1	-1	17	13	46	37
-1	13	5	-1	21	16	63	12	-1	-1	30	-1	-1	-1	28	-1	3	7	-1	-1	-1	-1	43	27	-1	-1	-1	51	-1	2	-1	-1	58	52	47	60	-1	-1	-1	59	17	-1	-1	-1	-1	55	-1	-1	-1	-1	-1	-1	6	-1	-1	-1	-1	-1	-1	-1	23	54	10	-1
58	27	-1	4	40	-1	35	-1	-1	-1	-1	-1	-1	52	-1	22	-1	30	46	-1	24	-1	-1	19	-1	-1	18	-1	45	55	-1	38	2	-1	28	-1	-1	1	-1	49	23	-1	62	-1	13	-1	-1	-1	-1	-1	-1	-1	-1	-1	29	-1	-1	36	51	-1	53	-1	-1	42
-1	-1	-1	28	24	-1	-1	42	-1	59	-1	-1	-1	54	-1	5	64	-1	-1	-1	26	-1	-1	11	10	-1	-1	-1	-1	-1	13	20	53	21	17	46	-1	19	-1	-1	-1	-1	-1	12	-1	38	51	27	32	40	-1	-1	56	-1	-1	8	30	-1	-1	-1	-1	-1	-1	35
-1	60	-1	43	-1	-1	31	-1	-1	22	-1	-1	-1	14	-1	-1	-1	-1	-1	-1	-1	-1	-1	-1	-1	11	-1	9	-1	-1	20	29	57	-1	-1	-1	35	58	-1	-1	-1	-1	32	30	-1	-1	-1	49	27	-1	41	-1	-1	18	56	45	-1	46	15	-1	36	55	-1	-1
-1	-1	-1	22	64	-1	-1	54	-1	-1	34	-1	-1	33	-1	-1	63	43	50	58	9	-1	42	-1	-1	-1	-1	1	-1	-1	-1	-1	-1	-1	-1	-1	-1	46	-1	45	5	-1	-1	55	-1	59	-1	-1	-1	60	10	44	2	29	-1	-1	35	23	53	6	57	-1	-1	-1
-1	-1	26	15	51	-1	-1	44	13	-1	-1	-1	52	42	-1	19	28	-1	-1	-1	-1	-1	32	-1	-1	18	-1	-1	-1	-1	60	-1	-1	-1	-1	-1	-1	-1	-1	7	-1	4	22	37	27	-1	45	54	39	-1	-1	-1	9	36	-1	-1	-1	58	-1	-1	-1	47	-1	25
24	56	-1	50	-1	52	-1	10	-1	-1	-1	-1	-1	4	46	-1	-1	27	53	1	29	-1	35	-1	-1	48	-1	-1	26	62	-1	-1	19	-1	-1	-1	-1	-1	-1	-1	20	39	-1	7	-1	2	-1	-1	64	-1	61	-1	-1	-1	-1	5	-1	51	-1	-1	-1	-1	-1	-1
33	11	46	-1	7	29	-1	-1	-1	36	-1	-1	-1	-1	-1	27	54	-1	-1	41	8	60	-1	18	-1	-1	-1	32	14	-1	-1	-1	-1	-1	-1	31	-1	-1	-1	-1	-1	-1	-1	-1	-1	-1	16	-1	51	-1	21	-1	53	-1	-1	-1	1	-1	-1	3	-1	4	-1	-1
-1	4	-1	-1	9	14	-1	-1	-1	-1	57	-1	-1	60	-1	-1	47	-1	31	52	37	-1	12	51	-1	30	-1	-1	5	-1	2	36	18	-1	16	-1	-1	-1	-1	-1	53	17	-1	-1	-1	-1	-1	-1	-1	-1	-1	-1	-1	-1	43	-1	-1	56	42	39	38	44	20	-1
-1	38	-1	-1	20	6	-1	-1	29	-1	-1	3	-1	45	32	-1	36	-1	11	-1	2	-1	-1	-1	31	-1	-1	58	-1	7	-1	-1	44	-1	-1	15	51	50	-1	-1	42	48	10	52	43	-1	-1	18	25	-1	12	-1	47	22	-1	-1	-1	-1	-1	-1	-1	-1	30	62
-1	-1	-1	-1	59	-1	-1	-1	28	-1	-1	-1	-1	41	44	-1	-1	-1	55	57	-1	45	-1	-1	53	50	-1	-1	38	-1	-1	-1	-1	32	63	-1	-1	-1	62	-1	-1	29	-1	-1	56	24	-1	-1	20	33	17	-1	-1	-1	23	4	31	-1	-1	-1	61	-1	-1	-1
26	-1	-1	-1	-1	18	12	-1	42	13	-1	-1	58	64	-1	-1	11	-1	41	31	-1	-1	-1	-1	-1	-1	-1	-1	-1	40	21	-1	36	-1	-1	-1	-1	-1	24	-1	-1	54	-1	-1	19	-1	27	32	-1	-1	-1	-1	-1	-1	10	-1	22	-1	52	53	-1	-1	-1	29
-1	-1	-1	2	-1	-1	-1	63	-1	-1	-1	55	-1	-1	-1	-1	-1	-1	52	-1	-1	-1	14	-1	-1	-1	-1	50	-1	-1	-1	5	-1	-1	-1	4	42	-1	19	39	11	-1	-1	-1	47	17	46	-1	-1	-1	26	20	-1	21	-1	-1	-1	-1	-1	37	-1	-1	36	-1
53	14	60	59	-1	56	6	-1	-1	43	-1	39	-1	-1	2	61	-1	-1	45	-1	50	36	-1	12	7	-1	63	24	47	-1	31	-1	22	-1	46	-1	-1	-1	-1	-1	41	-1	-1	1	64	16	4	29	-1	35	58	30	-1	54	55	28	13	-1	-1	-1	-1	-1	-1	-1
9	-1	31	-1	57	-1	-1	-1	-1	28	-1	-1	17	20	-1	23	-1	-1	-1	22	27	-1	-1	-1	-1	-1	-1	45	37	46	-1	-1	54	-1	-1	63	-1	38	41	-1	-1	-1	-1	6	-1	-1	-1	-1	19	36	-1	64	-1	-1	25	60	-1	-1	-1	33	-1	61	-1	-1
-1	-1	42	19	-1	-1	-1	38	-1	-1	-1	-1	-1	48	-1	63	-1	-1	37	-1	30	18	-1	-1	61	12	-1	-1	-1	58	-1	-1	29	-1	-1	-1	26	6	5	-1	-1	40	7	-1	-1	-1	-1	-1	-1	-1	47	-1	43	-1	-1	51	-1	-1	-1	50	39	-1	-1	4
27	-1	41	-1	-1	-1	36	-1	-1	-1	-1	-1	11	53	-1	-1	8	4	64	-1	35	-1	-1	-1	-1	-1	60	-1	-1	17	-1	-1	-1	51	-1	-1	-1	-1	48	-1	52	-1	23	18	-1	5	38	-1	50	-1	16	-1	62	57	-1	-1	2	59	-1	-1	-1	25	12	-1
-1	-1	-1	8	-1	-1	-1	-1	37	15	-1	19	-1	-1	-1	-1	9	-1	-1	-1	-1	-1	-1	-1	38	-1	64	-1	-1	-1	30	-1	7	-1	-1	-1	-1	-1	11	-1	45	-1	-1	58	-1	-1	20	-1	3	41	-1	-1	-1	-1	-1	-1	44	24	23	-1	-1	43	-1	-1
34	-1	29	51	58	-1	-1	-1	56	-1	-1	5	-1	-1	-1	-1	-1	-1	39	-1	57	-1	47	-1	-1	27	11	-1	-1	19	-1	16	-1	-1	-1	-1	25	-1	-1	-1	-1	-1	-1	-1	37	15	-1	44	-1	7	-1	-1	-1	-1	-1	63	-1	-1	-1	-1	-1	-1	-1	-1
64 
58 26 13 16
42 64 3 12
4 9 45 16
26 23 46 57
25 23 41 63
14 51 38 58
60 63 47 31
27 6 10 63
12 52 11 19
53 23 9 20
39 32 4 40
56 64 20 45
1 7 62 29
18 40 64 61
6 30 30 45
32 49 10 5
50 10 53 18
59 32 36 13
34 43 46 47
21 10 20 17
13 56 59 63
39 3 48 63
54 9 26 22
35 9 62 52
35 63 10 52
36 28 29 14
44 53 24 19
11 6 7 36
7 59 58 17
57 4 50 37
11 58 17 23
41 13 15 19
38 53 64 20
4 8 32 7
41 40 60 25
63 46 35 23
21 40 22 28
5 31 49 41
49 18 5 58
40 49 14 46
40 18 54 27
25 45 3 47
20 14 48 52
62 56 53 46
29 48 13 35
64 62 3 60
11 60 26 64
56 13 31 40
13 55 38 43
18 23 20 63
39 39 27 50
36 27 61 32
40 57 20 49
56 31 30 19
42 14 61 41
28 11 63 32
52 48 8 14
5 46 13 27
7 2 54 30
4 54 24 16
43 19 33 30
48 7 50 1
43 28 8 26
25 57 22 10
